; benchmark generated from python API
(set-info :status unknown)
(declare-fun x_epoch () Int)
(declare-fun x_shift_period_767751_epoch () Int)
(declare-fun x_year () Int)
(declare-fun x_month () Int)
(declare-fun x_day () Int)
(declare-fun x_shift_period_767751_year () Int)
(declare-fun x_shift_period_767751_month () Int)
(declare-fun x_shift_period_767751_day () Int)
(declare-fun x_shift_period_775084_epoch () Int)
(declare-fun x_shift_period_775084_year () Int)
(declare-fun x_shift_period_775084_month () Int)
(declare-fun x_shift_period_775084_day () Int)
(assert
 (>= x_epoch (- 36584)))
(assert
 (<= x_epoch 36829))
(assert
 (>= x_epoch 7245))
(assert
 (<= x_epoch 7303))
(assert
 (>= x_shift_period_767751_epoch (- 36584)))
(assert
 (<= x_shift_period_767751_epoch 36829))
(assert
 (let (($x905 (<= x_year 2100)))
 (let (($x484 (>= x_year 1900)))
 (let (($x626 (= x_month 11)))
 (let (($x3475 (= x_month 9)))
 (let (($x827 (= x_month 6)))
 (let (($x3514 (= x_month 4)))
 (let ((?x115 (ite (or $x3514 $x827 $x3475 $x626) 30 31)))
 (let (($x270 (= (mod x_year 4) 0)))
 (let (($x3215 (= (mod x_year 100) 0)))
 (let (($x2817 (= (mod x_year 400) 0)))
 (let (($x335 (ite $x2817 true (ite $x3215 false $x270))))
 (let (($x2083 (= x_month 2)))
 (let ((?x3455 (ite $x2083 (ite $x335 29 28) ?x115)))
 (let (($x823 (>= x_day 1)))
 (let (($x958 (<= x_month 12)))
 (let (($x429 (>= x_month 1)))
 (and $x429 $x958 $x823 (<= x_day ?x3455) $x484 $x905))))))))))))))))))
(assert
 (let (($x29 (or (and (= (mod 2000 4) 0) (and (distinct (mod 2000 100) 0) true)) (= (mod 2000 400) 0))))
 (let ((?x36 (ite (= 3 2) (ite $x29 31 31) (ite (= 3 1) (ite $x29 0 0) 0))))
 (let ((?x40 (ite $x29 60 59)))
 (let ((?x41 (ite (= 3 3) ?x40 ?x36)))
 (let ((?x46 (ite (= 3 4) (ite $x29 91 90) ?x41)))
 (let ((?x52 (ite (= 3 5) (ite $x29 121 120) ?x46)))
 (let ((?x58 (ite (= 3 6) (ite $x29 152 151) ?x52)))
 (let ((?x64 (ite (= 3 7) (ite $x29 182 181) ?x58)))
 (let ((?x70 (ite (= 3 8) (ite $x29 213 212) ?x64)))
 (let ((?x76 (ite (= 3 9) (ite $x29 244 243) ?x70)))
 (let ((?x82 (ite (= 3 10) (ite $x29 274 273) ?x76)))
 (let ((?x88 (ite (= 3 11) (ite $x29 305 304) ?x82)))
 (let ((?x16 (- (+ (* 365 (- 2000 1)) (div (- 2000 1) 4)) (div (- 2000 1) 100))))
 (let ((?x95 (+ (+ ?x16 (div (- 2000 1) 400)) (ite (= 3 12) (ite $x29 335 334) ?x88))))
 (let ((?x97 (+ ?x95 (- 1 1))))
 (let (($x270 (= (mod x_year 4) 0)))
 (let (($x3215 (= (mod x_year 100) 0)))
 (let (($x2817 (= (mod x_year 400) 0)))
 (let (($x335 (ite $x2817 true (ite $x3215 false $x270))))
 (let (($x1187 (= 2 x_month)))
 (let ((?x854 (ite $x1187 (ite $x335 31 31) (ite (= 1 x_month) (ite $x335 0 0) 0))))
 (let (($x697 (= 3 x_month)))
 (let (($x290 (= 4 x_month)))
 (let ((?x772 (ite $x290 (ite $x335 91 90) (ite $x697 (ite $x335 60 59) ?x854))))
 (let (($x385 (= 5 x_month)))
 (let (($x1666 (= 6 x_month)))
 (let ((?x614 (ite $x1666 (ite $x335 152 151) (ite $x385 (ite $x335 121 120) ?x772))))
 (let (($x1471 (= 7 x_month)))
 (let (($x654 (= 8 x_month)))
 (let ((?x257 (ite $x654 (ite $x335 213 212) (ite $x1471 (ite $x335 182 181) ?x614))))
 (let (($x2288 (= 9 x_month)))
 (let (($x619 (= 10 x_month)))
 (let ((?x1429 (ite $x619 (ite $x335 274 273) (ite $x2288 (ite $x335 244 243) ?x257))))
 (let (($x444 (= 11 x_month)))
 (let (($x2946 (= 12 x_month)))
 (let ((?x292 (ite $x2946 (ite $x335 335 334) (ite $x444 (ite $x335 305 304) ?x1429))))
 (let ((?x680 (- (+ (* 365 (- x_year 1)) (div (- x_year 1) 4)) (div (- x_year 1) 100))))
 (let ((?x451 (+ (+ (+ ?x680 (div (- x_year 1) 400)) ?x292) (- x_day 1))))
 (= x_epoch (- ?x451 ?x97)))))))))))))))))))))))))))))))))))))))))
(assert
 (let (($x2019 (<= x_shift_period_767751_year 2100)))
 (let (($x3418 (>= x_shift_period_767751_year 1900)))
 (let (($x2417 (= x_shift_period_767751_month 11)))
 (let (($x573 (= x_shift_period_767751_month 9)))
 (let (($x1644 (= x_shift_period_767751_month 6)))
 (let (($x672 (= x_shift_period_767751_month 4)))
 (let ((?x1933 (ite (or $x672 $x1644 $x573 $x2417) 30 31)))
 (let (($x2067 (= (mod x_shift_period_767751_year 4) 0)))
 (let (($x4268 (= (mod x_shift_period_767751_year 100) 0)))
 (let (($x3758 (= (mod x_shift_period_767751_year 400) 0)))
 (let (($x1577 (ite $x3758 true (ite $x4268 false $x2067))))
 (let (($x3312 (= x_shift_period_767751_month 2)))
 (let (($x2220 (>= x_shift_period_767751_day 1)))
 (let (($x640 (<= x_shift_period_767751_month 12)))
 (let (($x4068 (>= x_shift_period_767751_month 1)))
 (and $x4068 $x640 $x2220 (<= x_shift_period_767751_day (ite $x3312 (ite $x1577 29 28) ?x1933)) $x3418 $x2019)))))))))))))))))
(assert
 (let (($x29 (or (and (= (mod 2000 4) 0) (and (distinct (mod 2000 100) 0) true)) (= (mod 2000 400) 0))))
 (let ((?x36 (ite (= 3 2) (ite $x29 31 31) (ite (= 3 1) (ite $x29 0 0) 0))))
 (let ((?x40 (ite $x29 60 59)))
 (let ((?x41 (ite (= 3 3) ?x40 ?x36)))
 (let ((?x46 (ite (= 3 4) (ite $x29 91 90) ?x41)))
 (let ((?x52 (ite (= 3 5) (ite $x29 121 120) ?x46)))
 (let ((?x58 (ite (= 3 6) (ite $x29 152 151) ?x52)))
 (let ((?x64 (ite (= 3 7) (ite $x29 182 181) ?x58)))
 (let ((?x70 (ite (= 3 8) (ite $x29 213 212) ?x64)))
 (let ((?x76 (ite (= 3 9) (ite $x29 244 243) ?x70)))
 (let ((?x82 (ite (= 3 10) (ite $x29 274 273) ?x76)))
 (let ((?x88 (ite (= 3 11) (ite $x29 305 304) ?x82)))
 (let ((?x16 (- (+ (* 365 (- 2000 1)) (div (- 2000 1) 4)) (div (- 2000 1) 100))))
 (let ((?x95 (+ (+ ?x16 (div (- 2000 1) 400)) (ite (= 3 12) (ite $x29 335 334) ?x88))))
 (let ((?x97 (+ ?x95 (- 1 1))))
 (let (($x2067 (= (mod x_shift_period_767751_year 4) 0)))
 (let (($x4268 (= (mod x_shift_period_767751_year 100) 0)))
 (let (($x3758 (= (mod x_shift_period_767751_year 400) 0)))
 (let (($x1577 (ite $x3758 true (ite $x4268 false $x2067))))
 (let ((?x968 (ite (= 1 x_shift_period_767751_month) (ite $x1577 0 0) 0)))
 (let ((?x2800 (ite (= 3 x_shift_period_767751_month) (ite $x1577 60 59) (ite (= 2 x_shift_period_767751_month) (ite $x1577 31 31) ?x968))))
 (let ((?x1746 (ite (= 5 x_shift_period_767751_month) (ite $x1577 121 120) (ite (= 4 x_shift_period_767751_month) (ite $x1577 91 90) ?x2800))))
 (let ((?x2455 (ite (= 7 x_shift_period_767751_month) (ite $x1577 182 181) (ite (= 6 x_shift_period_767751_month) (ite $x1577 152 151) ?x1746))))
 (let ((?x103 (ite (= 9 x_shift_period_767751_month) (ite $x1577 244 243) (ite (= 8 x_shift_period_767751_month) (ite $x1577 213 212) ?x2455))))
 (let ((?x2952 (ite (= 11 x_shift_period_767751_month) (ite $x1577 305 304) (ite (= 10 x_shift_period_767751_month) (ite $x1577 274 273) ?x103))))
 (let ((?x1914 (+ (* 365 (- x_shift_period_767751_year 1)) (div (- x_shift_period_767751_year 1) 4))))
 (let ((?x960 (+ (- ?x1914 (div (- x_shift_period_767751_year 1) 100)) (div (- x_shift_period_767751_year 1) 400))))
 (let ((?x782 (+ ?x960 (ite (= 12 x_shift_period_767751_month) (ite $x1577 335 334) ?x2952))))
 (= x_shift_period_767751_epoch (- (+ ?x782 (- x_shift_period_767751_day 1)) ?x97)))))))))))))))))))))))))))))))
(assert
 (let ((?x2629 (* 12 x_year)))
 (let ((?x416 (+ ?x2629 (- x_month 1))))
 (let ((?x2522 (+ ?x416 12)))
 (let ((?x3488 (div ?x2522 12)))
 (= x_shift_period_767751_year ?x3488))))))
(assert
 (let ((?x2310 (+ (mod (+ (+ (* 12 x_year) (- x_month 1)) 12) 12) 1)))
 (= x_shift_period_767751_month ?x2310)))
(assert
 (let ((?x2310 (+ (mod (+ (+ (* 12 x_year) (- x_month 1)) 12) 12) 1)))
 (let ((?x1209 (ite (or (= ?x2310 4) (= ?x2310 6) (= ?x2310 9) (= ?x2310 11)) 30 31)))
 (let ((?x2629 (* 12 x_year)))
 (let ((?x416 (+ ?x2629 (- x_month 1))))
 (let ((?x2522 (+ ?x416 12)))
 (let ((?x3488 (div ?x2522 12)))
 (let (($x783 (ite (= (mod ?x3488 400) 0) true (ite (= (mod ?x3488 100) 0) false (= (mod ?x3488 4) 0)))))
 (let ((?x2145 (ite (= ?x2310 2) (ite $x783 29 28) ?x1209)))
 (let ((?x3291 (ite (<= x_day ?x2145) x_day ?x2145)))
 (let (($x626 (= x_month 11)))
 (let (($x3475 (= x_month 9)))
 (let (($x827 (= x_month 6)))
 (let (($x3514 (= x_month 4)))
 (let ((?x115 (ite (or $x3514 $x827 $x3475 $x626) 30 31)))
 (let (($x270 (= (mod x_year 4) 0)))
 (let (($x3215 (= (mod x_year 100) 0)))
 (let (($x2817 (= (mod x_year 400) 0)))
 (let (($x335 (ite $x2817 true (ite $x3215 false $x270))))
 (let (($x2083 (= x_month 2)))
 (let ((?x3455 (ite $x2083 (ite $x335 29 28) ?x115)))
 (let (($x1398 (= x_day ?x3455)))
 (let ((?x2451 (ite false (ite $x1398 ?x2145 ?x3291) ?x3291)))
 (= x_shift_period_767751_day ?x2451))))))))))))))))))))))))
(assert
 (>= x_shift_period_775084_epoch (- 36584)))
(assert
 (<= x_shift_period_775084_epoch 36829))
(assert
 (let (($x3672 (<= x_shift_period_775084_year 2100)))
 (let (($x3559 (>= x_shift_period_775084_year 1900)))
 (let (($x3309 (= x_shift_period_775084_month 11)))
 (let (($x1105 (= x_shift_period_775084_month 9)))
 (let (($x1903 (= x_shift_period_775084_month 6)))
 (let (($x3544 (= x_shift_period_775084_month 4)))
 (let ((?x1132 (ite (or $x3544 $x1903 $x1105 $x3309) 30 31)))
 (let (($x2969 (= (mod x_shift_period_775084_year 4) 0)))
 (let (($x897 (= (mod x_shift_period_775084_year 100) 0)))
 (let (($x3012 (= (mod x_shift_period_775084_year 400) 0)))
 (let (($x1249 (ite $x3012 true (ite $x897 false $x2969))))
 (let (($x3283 (= x_shift_period_775084_month 2)))
 (let (($x3123 (>= x_shift_period_775084_day 1)))
 (let (($x709 (<= x_shift_period_775084_month 12)))
 (let (($x1145 (>= x_shift_period_775084_month 1)))
 (and $x1145 $x709 $x3123 (<= x_shift_period_775084_day (ite $x3283 (ite $x1249 29 28) ?x1132)) $x3559 $x3672)))))))))))))))))
(assert
 (let (($x29 (or (and (= (mod 2000 4) 0) (and (distinct (mod 2000 100) 0) true)) (= (mod 2000 400) 0))))
 (let ((?x36 (ite (= 3 2) (ite $x29 31 31) (ite (= 3 1) (ite $x29 0 0) 0))))
 (let ((?x40 (ite $x29 60 59)))
 (let ((?x41 (ite (= 3 3) ?x40 ?x36)))
 (let ((?x46 (ite (= 3 4) (ite $x29 91 90) ?x41)))
 (let ((?x52 (ite (= 3 5) (ite $x29 121 120) ?x46)))
 (let ((?x58 (ite (= 3 6) (ite $x29 152 151) ?x52)))
 (let ((?x64 (ite (= 3 7) (ite $x29 182 181) ?x58)))
 (let ((?x70 (ite (= 3 8) (ite $x29 213 212) ?x64)))
 (let ((?x76 (ite (= 3 9) (ite $x29 244 243) ?x70)))
 (let ((?x82 (ite (= 3 10) (ite $x29 274 273) ?x76)))
 (let ((?x88 (ite (= 3 11) (ite $x29 305 304) ?x82)))
 (let ((?x16 (- (+ (* 365 (- 2000 1)) (div (- 2000 1) 4)) (div (- 2000 1) 100))))
 (let ((?x95 (+ (+ ?x16 (div (- 2000 1) 400)) (ite (= 3 12) (ite $x29 335 334) ?x88))))
 (let ((?x97 (+ ?x95 (- 1 1))))
 (let (($x2969 (= (mod x_shift_period_775084_year 4) 0)))
 (let (($x897 (= (mod x_shift_period_775084_year 100) 0)))
 (let (($x3012 (= (mod x_shift_period_775084_year 400) 0)))
 (let (($x1249 (ite $x3012 true (ite $x897 false $x2969))))
 (let ((?x2203 (ite (= 1 x_shift_period_775084_month) (ite $x1249 0 0) 0)))
 (let ((?x297 (ite (= 3 x_shift_period_775084_month) (ite $x1249 60 59) (ite (= 2 x_shift_period_775084_month) (ite $x1249 31 31) ?x2203))))
 (let ((?x962 (ite (= 5 x_shift_period_775084_month) (ite $x1249 121 120) (ite (= 4 x_shift_period_775084_month) (ite $x1249 91 90) ?x297))))
 (let ((?x453 (ite (= 7 x_shift_period_775084_month) (ite $x1249 182 181) (ite (= 6 x_shift_period_775084_month) (ite $x1249 152 151) ?x962))))
 (let ((?x3800 (ite (= 9 x_shift_period_775084_month) (ite $x1249 244 243) (ite (= 8 x_shift_period_775084_month) (ite $x1249 213 212) ?x453))))
 (let ((?x279 (ite (= 11 x_shift_period_775084_month) (ite $x1249 305 304) (ite (= 10 x_shift_period_775084_month) (ite $x1249 274 273) ?x3800))))
 (let ((?x3740 (+ (* 365 (- x_shift_period_775084_year 1)) (div (- x_shift_period_775084_year 1) 4))))
 (let ((?x3816 (+ (- ?x3740 (div (- x_shift_period_775084_year 1) 100)) (div (- x_shift_period_775084_year 1) 400))))
 (let ((?x427 (+ ?x3816 (ite (= 12 x_shift_period_775084_month) (ite $x1249 335 334) ?x279))))
 (= x_shift_period_775084_epoch (- (+ ?x427 (- x_shift_period_775084_day 1)) ?x97)))))))))))))))))))))))))))))))
(assert
 (= x_shift_period_775084_epoch (+ x_epoch 365)))
(assert
 (not (= x_shift_period_767751_epoch x_shift_period_775084_epoch)))
(check-sat)
